\ Model hhp_dispatch
\ LP format - for model browsing. Use MPS format to capture full model detail.
Minimize
  4.285714285714286 Q_hp[0] + 4.285714285714286 Q_hp[1]
   + 4.285714285714286 Q_hp[2] + 4.285714285714286 Q_hp[3]
   + 1.428571428571428 Q_hp[4] + 1.428571428571428 Q_hp[5]
   + 1.428571428571428 Q_hp[6] + 1.428571428571428 Q_hp[7]
   + 1.428571428571428 Q_hp[8] + 1.428571428571428 Q_hp[9]
   + 1.428571428571428 Q_hp[10] + 4.285714285714286 Q_hp[11]
   + 4.285714285714286 Q_hp[12] + 4.285714285714286 Q_hp[13]
   + 4.285714285714286 Q_hp[14] + 4.285714285714286 Q_hp[15]
   + 4.285714285714286 Q_hp[16] + 4.285714285714286 Q_hp[17]
   + 4.285714285714286 Q_hp[18] + 4.285714285714286 Q_hp[19]
   + 4.285714285714286 Q_hp[20] + 4.285714285714286 Q_hp[21]
   + 4.285714285714286 Q_hp[22] + 4.285714285714286 Q_hp[23]
   + 4.285714285714286 Q_hp[24] + 4.285714285714286 Q_hp[25]
   + 1.428571428571428 Q_hp[26] + 1.428571428571428 Q_hp[27]
   + 1.428571428571428 Q_hp[28] + 1.428571428571428 Q_hp[29]
   + 1.428571428571428 Q_hp[30] + 1.428571428571428 Q_hp[31]
   + 1.428571428571428 Q_hp[32] + 1.428571428571428 Q_hp[33]
   + 8.571428571428571 Q_hp[34] + 8.571428571428571 Q_hp[35]
   + 8.571428571428571 Q_hp[36] + 8.571428571428571 Q_hp[37]
   + 8.571428571428571 Q_hp[38] + 8.571428571428571 Q_hp[39]
   + 8.571428571428571 Q_hp[40] + 4.285714285714286 Q_hp[41]
   + 1.428571428571428 Q_hp[42] + 1.428571428571428 Q_hp[43]
   + 1.428571428571428 Q_hp[44] + 1.428571428571428 Q_hp[45]
   + 1.428571428571428 Q_hp[46] + 1.428571428571428 Q_hp[47]
   + 5.555555555555555 Q_bo[0] + 5.555555555555555 Q_bo[1]
   + 5.555555555555555 Q_bo[2] + 5.555555555555555 Q_bo[3]
   + 5.555555555555555 Q_bo[4] + 5.555555555555555 Q_bo[5]
   + 5.555555555555555 Q_bo[6] + 5.555555555555555 Q_bo[7]
   + 5.555555555555555 Q_bo[8] + 5.555555555555555 Q_bo[9]
   + 5.555555555555555 Q_bo[10] + 5.555555555555555 Q_bo[11]
   + 5.555555555555555 Q_bo[12] + 5.555555555555555 Q_bo[13]
   + 5.555555555555555 Q_bo[14] + 5.555555555555555 Q_bo[15]
   + 5.555555555555555 Q_bo[16] + 5.555555555555555 Q_bo[17]
   + 5.555555555555555 Q_bo[18] + 5.555555555555555 Q_bo[19]
   + 5.555555555555555 Q_bo[20] + 5.555555555555555 Q_bo[21]
   + 5.555555555555555 Q_bo[22] + 5.555555555555555 Q_bo[23]
   + 5.555555555555555 Q_bo[24] + 5.555555555555555 Q_bo[25]
   + 5.555555555555555 Q_bo[26] + 5.555555555555555 Q_bo[27]
   + 5.555555555555555 Q_bo[28] + 5.555555555555555 Q_bo[29]
   + 5.555555555555555 Q_bo[30] + 5.555555555555555 Q_bo[31]
   + 5.555555555555555 Q_bo[32] + 5.555555555555555 Q_bo[33]
   + 5.555555555555555 Q_bo[34] + 5.555555555555555 Q_bo[35]
   + 5.555555555555555 Q_bo[36] + 5.555555555555555 Q_bo[37]
   + 5.555555555555555 Q_bo[38] + 5.555555555555555 Q_bo[39]
   + 5.555555555555555 Q_bo[40] + 5.555555555555555 Q_bo[41]
   + 5.555555555555555 Q_bo[42] + 5.555555555555555 Q_bo[43]
   + 5.555555555555555 Q_bo[44] + 5.555555555555555 Q_bo[45]
   + 5.555555555555555 Q_bo[46] + 5.555555555555555 Q_bo[47]
Subject To
 init_temp: Tin[0] = 18
 dyn_1: - 5.92885e-05 Q_hp[0] - 5.92885e-05 Q_bo[0]
   - 0.9881422924901185 Tin[0] + Tin[1] = 0.1046245059288537
 dyn_2: - 5.92885e-05 Q_hp[1] - 5.92885e-05 Q_bo[1]
   - 0.9881422924901185 Tin[1] + Tin[2] = 0.1052173913043478
 dyn_3: - 5.92885e-05 Q_hp[2] - 5.92885e-05 Q_bo[2]
   - 0.9881422924901185 Tin[2] + Tin[3] = 0.1016600790513834
 dyn_4: - 5.92885e-05 Q_hp[3] - 5.92885e-05 Q_bo[3]
   - 0.9881422924901185 Tin[3] + Tin[4] = 0.0933596837944664
 dyn_5: - 5.92885e-05 Q_hp[4] - 5.92885e-05 Q_bo[4]
   - 0.9881422924901185 Tin[4] + Tin[5] = 0.0900395256916996
 dyn_6: - 5.92885e-05 Q_hp[5] - 5.92885e-05 Q_bo[5]
   - 0.9881422924901185 Tin[5] + Tin[6] = 0.0924110671936759
 dyn_7: - 5.92885e-05 Q_hp[6] - 5.92885e-05 Q_bo[6]
   - 0.9881422924901185 Tin[6] + Tin[7] = 0.0945059288537549
 dyn_8: - 5.92885e-05 Q_hp[7] - 5.92885e-05 Q_bo[7]
   - 0.9881422924901185 Tin[7] + Tin[8] = 0.0962845849802371
 dyn_9: - 5.92885e-05 Q_hp[8] - 5.92885e-05 Q_bo[8]
   - 0.9881422924901185 Tin[8] + Tin[9] = 0.0969565217391304
 dyn_10: - 5.92885e-05 Q_hp[9] - 5.92885e-05 Q_bo[9]
   - 0.9881422924901185 Tin[9] + Tin[10] = 0.0963636363636364
 dyn_11: - 5.92885e-05 Q_hp[10] - 5.92885e-05 Q_bo[10]
   - 0.9881422924901185 Tin[10] + Tin[11] = 0.095494071146245
 dyn_12: - 5.92885e-05 Q_hp[11] - 5.92885e-05 Q_bo[11]
   - 0.9881422924901185 Tin[11] + Tin[12] = 0.0943083003952569
 dyn_13: - 5.92885e-05 Q_hp[12] - 5.92885e-05 Q_bo[12]
   - 0.9881422924901185 Tin[12] + Tin[13] = 0.0922924901185771
 dyn_14: - 5.92885e-05 Q_hp[13] - 5.92885e-05 Q_bo[13]
   - 0.9881422924901185 Tin[13] + Tin[14] = 0.0893280632411067
 dyn_15: - 5.92885e-05 Q_hp[14] - 5.92885e-05 Q_bo[14]
   - 0.9881422924901185 Tin[14] + Tin[15] = 0.0885770750988142
 dyn_16: - 5.92885e-05 Q_hp[15] - 5.92885e-05 Q_bo[15]
   - 0.9881422924901185 Tin[15] + Tin[16] = 0.0903557312252964
 dyn_17: - 5.92885e-05 Q_hp[16] - 5.92885e-05 Q_bo[16]
   - 0.9881422924901185 Tin[16] + Tin[17] = 0.0907509881422925
 dyn_18: - 5.92885e-05 Q_hp[17] - 5.92885e-05 Q_bo[17]
   - 0.9881422924901185 Tin[17] + Tin[18] = 0.0895652173913043
 dyn_19: - 5.92885e-05 Q_hp[18] - 5.92885e-05 Q_bo[18]
   - 0.9881422924901185 Tin[18] + Tin[19] = 0.0886561264822135
 dyn_20: - 5.92885e-05 Q_hp[19] - 5.92885e-05 Q_bo[19]
   - 0.9881422924901185 Tin[19] + Tin[20] = 0.0910276679841897
 dyn_21: - 5.92885e-05 Q_hp[20] - 5.92885e-05 Q_bo[20]
   - 0.9881422924901185 Tin[20] + Tin[21] = 0.0936758893280632
 dyn_22: - 5.92885e-05 Q_hp[21] - 5.92885e-05 Q_bo[21]
   - 0.9881422924901185 Tin[21] + Tin[22] = 0.0960474308300395
 dyn_23: - 5.92885e-05 Q_hp[22] - 5.92885e-05 Q_bo[22]
   - 0.9881422924901185 Tin[22] + Tin[23] = 0.0912252964426877
 dyn_24: - 5.92885e-05 Q_hp[23] - 5.92885e-05 Q_bo[23]
   - 0.9881422924901185 Tin[23] + Tin[24] = 0.0790711462450593
 dyn_25: - 5.92885e-05 Q_hp[24] - 5.92885e-05 Q_bo[24]
   - 0.9881422924901185 Tin[24] + Tin[25] = 0.0727272727272727
 dyn_26: - 5.92885e-05 Q_hp[25] - 5.92885e-05 Q_bo[25]
   - 0.9881422924901185 Tin[25] + Tin[26] = 0.0694664031620553
 dyn_27: - 5.92885e-05 Q_hp[26] - 5.92885e-05 Q_bo[26]
   - 0.9881422924901185 Tin[26] + Tin[27] = 0.0656521739130435
 dyn_28: - 5.92885e-05 Q_hp[27] - 5.92885e-05 Q_bo[27]
   - 0.9881422924901185 Tin[27] + Tin[28] = 0.0647628458498024
 dyn_29: - 5.92885e-05 Q_hp[28] - 5.92885e-05 Q_bo[28]
   - 0.9881422924901185 Tin[28] + Tin[29] = 0.0655335968379447
 dyn_30: - 5.92885e-05 Q_hp[29] - 5.92885e-05 Q_bo[29]
   - 0.9881422924901185 Tin[29] + Tin[30] = 0.0625691699604743
 dyn_31: - 5.92885e-05 Q_hp[30] - 5.92885e-05 Q_bo[30]
   - 0.9881422924901185 Tin[30] + Tin[31] = 0.0596047430830039
 dyn_32: - 5.92885e-05 Q_hp[31] - 5.92885e-05 Q_bo[31]
   - 0.9881422924901185 Tin[31] + Tin[32] = 0.051897233201581
 dyn_33: - 5.92885e-05 Q_hp[32] - 5.92885e-05 Q_bo[32]
   - 0.9881422924901185 Tin[32] + Tin[33] = 0.0433596837944664
 dyn_34: - 5.92885e-05 Q_hp[33] - 5.92885e-05 Q_bo[33]
   - 0.9881422924901185 Tin[33] + Tin[34] = 0.0389130434782609
 dyn_35: - 5.92885e-05 Q_hp[34] - 5.92885e-05 Q_bo[34]
   - 0.9881422924901185 Tin[34] + Tin[35] = 0.0355731225296443
 dyn_36: - 5.92885e-05 Q_hp[35] - 5.92885e-05 Q_bo[35]
   - 0.9881422924901185 Tin[35] + Tin[36] = 0.0355731225296443
 dyn_37: - 5.92885e-05 Q_hp[36] - 5.92885e-05 Q_bo[36]
   - 0.9881422924901185 Tin[36] + Tin[37] = 0.0297628458498024
 dyn_38: - 5.92885e-05 Q_hp[37] - 5.92885e-05 Q_bo[37]
   - 0.9881422924901185 Tin[37] + Tin[38] = 0.0173122529644269
 dyn_39: - 5.92885e-05 Q_hp[38] - 5.92885e-05 Q_bo[38]
   - 0.9881422924901185 Tin[38] + Tin[39] = 0.00873517786561265
 dyn_40: - 5.92885e-05 Q_hp[39] - 5.92885e-05 Q_bo[39]
   - 0.9881422924901185 Tin[39] + Tin[40] = 0.00458498023715415
 dyn_41: - 5.92885e-05 Q_hp[40] - 5.92885e-05 Q_bo[40]
   - 0.9881422924901185 Tin[40] + Tin[41] = 0.00154150197628458
 dyn_42: - 5.92885e-05 Q_hp[41] - 5.92885e-05 Q_bo[41]
   - 0.9881422924901185 Tin[41] + Tin[42] = -2.3715415019762845e-04
 dyn_43: - 5.92885e-05 Q_hp[42] - 5.92885e-05 Q_bo[42]
   - 0.9881422924901185 Tin[42] + Tin[43] = -0.000909091
 dyn_44: - 5.92885e-05 Q_hp[43] - 5.92885e-05 Q_bo[43]
   - 0.9881422924901185 Tin[43] + Tin[44] = -3.1620553754940707e-04
 dyn_45: - 5.92885e-05 Q_hp[44] - 5.92885e-05 Q_bo[44]
   - 0.9881422924901185 Tin[44] + Tin[45] = 8.3003952569169967e-04
 dyn_46: - 5.92885e-05 Q_hp[45] - 5.92885e-05 Q_bo[45]
   - 0.9881422924901185 Tin[45] + Tin[46] = 0.00260869565217391
 dyn_47: - 5.92885e-05 Q_hp[46] - 5.92885e-05 Q_bo[46]
   - 0.9881422924901185 Tin[46] + Tin[47] = 0.00328063241106719
 relaxed_min_0: Tin[0] >= 15
 relaxed_min_1: Tin[1] >= 15
 relaxed_min_2: Tin[2] >= 15
 relaxed_min_3: Tin[3] >= 15
 relaxed_min_4: Tin[4] >= 15
 relaxed_min_5: Tin[5] >= 15
 relaxed_min_6: Tin[6] >= 15
 relaxed_min_7: Tin[7] >= 15
 relaxed_min_8: Tin[8] >= 15
 relaxed_min_9: Tin[9] >= 15
 relaxed_min_10: Tin[10] >= 15
 relaxed_min_11: Tin[11] >= 15
 tmin_12: Tin[12] >= 21.5
 tmax_12: Tin[12] <= 22.5
 tmin_13: Tin[13] >= 21.5
 tmax_13: Tin[13] <= 22.5
 tmin_14: Tin[14] >= 21.5
 tmax_14: Tin[14] <= 22.5
 tmin_15: Tin[15] >= 21.5
 tmax_15: Tin[15] <= 22.5
 tmin_16: Tin[16] >= 21.5
 tmax_16: Tin[16] <= 22.5
 tmin_17: Tin[17] >= 21.5
 tmax_17: Tin[17] <= 22.5
 tmin_18: Tin[18] >= 21.5
 tmax_18: Tin[18] <= 22.5
 tmin_19: Tin[19] >= 21.5
 tmax_19: Tin[19] <= 22.5
 relaxed_min_20: Tin[20] >= 15
 relaxed_min_21: Tin[21] >= 15
 relaxed_min_22: Tin[22] >= 15
 relaxed_min_23: Tin[23] >= 15
 relaxed_min_24: Tin[24] >= 15
 relaxed_min_25: Tin[25] >= 15
 relaxed_min_26: Tin[26] >= 15
 relaxed_min_27: Tin[27] >= 15
 relaxed_min_28: Tin[28] >= 15
 relaxed_min_29: Tin[29] >= 15
 relaxed_min_30: Tin[30] >= 15
 relaxed_min_31: Tin[31] >= 15
 relaxed_min_32: Tin[32] >= 15
 relaxed_min_33: Tin[33] >= 15
 tmin_34: Tin[34] >= 21.5
 tmax_34: Tin[34] <= 22.5
 tmin_35: Tin[35] >= 21.5
 tmax_35: Tin[35] <= 22.5
 tmin_36: Tin[36] >= 21.5
 tmax_36: Tin[36] <= 22.5
 tmin_37: Tin[37] >= 21.5
 tmax_37: Tin[37] <= 22.5
 tmin_38: Tin[38] >= 21.5
 tmax_38: Tin[38] <= 22.5
 tmin_39: Tin[39] >= 21.5
 tmax_39: Tin[39] <= 22.5
 tmin_40: Tin[40] >= 21.5
 tmax_40: Tin[40] <= 22.5
 tmin_41: Tin[41] >= 21.5
 tmax_41: Tin[41] <= 22.5
 relaxed_min_42: Tin[42] >= 15
 relaxed_min_43: Tin[43] >= 15
 relaxed_min_44: Tin[44] >= 15
 relaxed_min_45: Tin[45] >= 15
 relaxed_min_46: Tin[46] >= 15
 relaxed_min_47: Tin[47] >= 15
Bounds
 Q_hp[0] <= 4000
 Q_hp[1] <= 4000
 Q_hp[2] <= 4000
 Q_hp[3] <= 4000
 Q_hp[4] <= 4000
 Q_hp[5] <= 4000
 Q_hp[6] <= 4000
 Q_hp[7] <= 4000
 Q_hp[8] <= 4000
 Q_hp[9] <= 4000
 Q_hp[10] <= 4000
 Q_hp[11] <= 4000
 Q_hp[12] <= 4000
 Q_hp[13] <= 4000
 Q_hp[14] <= 4000
 Q_hp[15] <= 4000
 Q_hp[16] <= 4000
 Q_hp[17] <= 4000
 Q_hp[18] <= 4000
 Q_hp[19] <= 4000
 Q_hp[20] <= 4000
 Q_hp[21] <= 4000
 Q_hp[22] <= 4000
 Q_hp[23] <= 4000
 Q_hp[24] <= 4000
 Q_hp[25] <= 4000
 Q_hp[26] <= 4000
 Q_hp[27] <= 4000
 Q_hp[28] <= 4000
 Q_hp[29] <= 4000
 Q_hp[30] <= 4000
 Q_hp[31] <= 4000
 Q_hp[32] <= 4000
 Q_hp[33] <= 4000
 Q_hp[34] <= 4000
 Q_hp[35] <= 4000
 Q_hp[36] <= 4000
 Q_hp[37] <= 4000
 Q_hp[38] <= 4000
 Q_hp[39] <= 4000
 Q_hp[40] <= 4000
 Q_hp[41] <= 4000
 Q_hp[42] <= 4000
 Q_hp[43] <= 4000
 Q_hp[44] <= 4000
 Q_hp[45] <= 4000
 Q_hp[46] <= 4000
 Q_hp[47] <= 4000
 Q_bo[0] <= 24000
 Q_bo[1] <= 24000
 Q_bo[2] <= 24000
 Q_bo[3] <= 24000
 Q_bo[4] <= 24000
 Q_bo[5] <= 24000
 Q_bo[6] <= 24000
 Q_bo[7] <= 24000
 Q_bo[8] <= 24000
 Q_bo[9] <= 24000
 Q_bo[10] <= 24000
 Q_bo[11] <= 24000
 Q_bo[12] <= 24000
 Q_bo[13] <= 24000
 Q_bo[14] <= 24000
 Q_bo[15] <= 24000
 Q_bo[16] <= 24000
 Q_bo[17] <= 24000
 Q_bo[18] <= 24000
 Q_bo[19] <= 24000
 Q_bo[20] <= 24000
 Q_bo[21] <= 24000
 Q_bo[22] <= 24000
 Q_bo[23] <= 24000
 Q_bo[24] <= 24000
 Q_bo[25] <= 24000
 Q_bo[26] <= 24000
 Q_bo[27] <= 24000
 Q_bo[28] <= 24000
 Q_bo[29] <= 24000
 Q_bo[30] <= 24000
 Q_bo[31] <= 24000
 Q_bo[32] <= 24000
 Q_bo[33] <= 24000
 Q_bo[34] <= 24000
 Q_bo[35] <= 24000
 Q_bo[36] <= 24000
 Q_bo[37] <= 24000
 Q_bo[38] <= 24000
 Q_bo[39] <= 24000
 Q_bo[40] <= 24000
 Q_bo[41] <= 24000
 Q_bo[42] <= 24000
 Q_bo[43] <= 24000
 Q_bo[44] <= 24000
 Q_bo[45] <= 24000
 Q_bo[46] <= 24000
 Q_bo[47] <= 24000
 Tin[0] free
 Tin[1] free
 Tin[2] free
 Tin[3] free
 Tin[4] free
 Tin[5] free
 Tin[6] free
 Tin[7] free
 Tin[8] free
 Tin[9] free
 Tin[10] free
 Tin[11] free
 Tin[12] free
 Tin[13] free
 Tin[14] free
 Tin[15] free
 Tin[16] free
 Tin[17] free
 Tin[18] free
 Tin[19] free
 Tin[20] free
 Tin[21] free
 Tin[22] free
 Tin[23] free
 Tin[24] free
 Tin[25] free
 Tin[26] free
 Tin[27] free
 Tin[28] free
 Tin[29] free
 Tin[30] free
 Tin[31] free
 Tin[32] free
 Tin[33] free
 Tin[34] free
 Tin[35] free
 Tin[36] free
 Tin[37] free
 Tin[38] free
 Tin[39] free
 Tin[40] free
 Tin[41] free
 Tin[42] free
 Tin[43] free
 Tin[44] free
 Tin[45] free
 Tin[46] free
 Tin[47] free
End
